0000000000000000
0000000000000000
0000001000000000
0000011110000000
0000000111100000
0000000001100000
0000000001100000
0000000001100000
0000000001100000
0000000001100000
0000000001100000
0000000001000000
0000000000000000
0000000000000000
0000000000000000
0000000000000000
